1 1 -2 0
1 1 3 0
1 1 -4 0
1 -1 5 0
1 -2 -3 0
1 2 6 0
1 -2 -1 0
1 -2 -4 0
1 -7 -8 0
1 7 -3 0
1 7 -6 0
1 7 -9 0
1 7 10 0
1 -7 4 0
1 11 12 0
1 11 6 0
1 -11 9 0
1 -11 -7 0
1 -11 4 0
1 6 13 0
1 -6 -14 0
1 -6 -15 0
1 6 -16 0
1 -6 -7 0
1 17 -11 0
1 17 6 0
1 -17 -14 0
1 -17 15 0
1 17 16 0
1 17 -1 0
1 3 13 0
1 3 18 0
1 -3 19 0
1 -3 2 0
1 -3 20 0
1 3 -14 0
1 3 -21 0
1 -3 -22 0
1 3 7 0
1 -3 -1 0
1 3 4 0
1 -4 -13 0
1 -4 -19 0
1 -4 -11 0
1 -4 -2 0
1 -4 -3 0
1 -4 7 0
1 4 -1 0
1 -16 12 0
1 -16 -23 0
1 16 6 0
1 -23 -8 0
1 -23 -12 0
1 23 -9 0
1 23 10 0
1 23 -16 0
1 15 -12 0
1 15 24 0
1 15 -25 0
1 15 -26 0
1 15 -10 0
1 -15 -27 0
1 15 -17 0
1 -24 -8 0
1 24 25 0
1 24 -6 0
1 24 15 0
1 -24 28 0
1 -24 -17 0
1 -10 29 0
1 -10 -12 0
1 -10 24 0
1 -10 23 0
1 10 11 0
1 -10 30 0
1 10 31 0
1 10 -32 0
1 10 16 0
1 10 7 0
1 -10 -33 0
1 12 -34 0
1 -12 24 0
1 12 23 0
1 12 -10 0
1 12 -16 0
1 12 -7 0
1 -12 33 0
1 9 -35 0
1 9 13 0
1 -9 24 0
1 9 11 0
1 9 -30 0
1 9 -36 0
1 9 -37 0
1 9 -14 0
1 9 -16 0
1 8 -38 0
1 -8 -24 0
1 8 -23 0
1 -8 11 0
1 -8 -9 0
1 -8 36 0
1 8 -15 0
1 -8 -16 0
1 32 39 0
1 32 -12 0
1 -32 10 0
1 -32 14 0
1 32 -28 0
1 39 13 0
1 39 32 0
1 -39 10 0
1 39 28 0
1 -39 27 0
1 -31 29 0
1 -31 25 0
1 -31 26 0
1 31 36 0
1 -31 -28 0
1 -29 35 0
1 29 12 0
1 -29 25 0
1 29 26 0
1 29 -31 0
1 29 10 0
1 29 -28 0
1 27 39 0
1 27 -24 0
1 27 26 0
1 27 40 0
1 -27 -31 0
1 -27 -41 0
1 -26 -24 0
1 -26 31 0
1 -26 15 0
1 -26 -42 0
1 28 -29 0
1 28 -39 0
1 -28 24 0
1 -28 25 0
1 28 -15 0
1 -28 -43 0
1 -25 -29 0
1 25 24 0
1 25 30 0
1 25 -15 0
1 25 42 0
1 25 -44 0
1 25 -33 0
1 -5 -45 0
1 5 46 0
1 -5 47 0
1 45 48 0
1 -45 49 0
1 45 -50 0
1 51 -48 0
1 -51 -52 0
1 -51 -53 0
1 51 -46 0
1 51 54 0
1 -51 -7 0
1 -51 55 0
1 56 52 0
1 -56 -53 0
1 -56 -11 0
1 -56 46 0
1 -56 -51 0
1 -52 57 0
1 52 56 0
1 -52 45 0
1 -52 46 0
1 52 -21 0
1 52 -22 0
1 52 -51 0
1 52 5 0
1 -46 -58 0
1 -46 -18 0
1 -46 -19 0
1 46 -56 0
1 46 -45 0
1 46 22 0
1 -46 -51 0
1 -48 -58 0
1 48 -59 0
1 -48 -56 0
1 48 60 0
1 48 61 0
1 -48 51 0
1 -48 5 0
1 50 -48 0
1 -50 -58 0
1 50 56 0
1 50 -62 0
1 -50 -60 0
1 50 61 0
1 -50 -51 0
1 50 -5 0
1 -22 -52 0
1 -22 -19 0
1 -22 63 0
1 -22 -3 0
1 -22 46 0
1 -22 54 0
1 22 61 0
1 19 -53 0
1 -19 23 0
1 19 -63 0
1 19 -59 0
1 19 -3 0
1 -19 54 0
1 -19 -22 0
1 21 18 0
1 21 -53 0
1 21 -64 0
1 21 15 0
1 -21 -65 0
1 21 66 0
1 21 -67 0
1 21 4 0
1 -18 54 0
1 -18 53 0
1 18 -68 0
1 18 -63 0
1 18 -69 0
1 18 3 0
1 18 -64 0
1 18 -21 0
1 63 54 0
1 -63 -35 0
1 -63 18 0
1 -63 -19 0
1 63 70 0
1 -63 -14 0
1 63 21 0
1 63 51 0
1 -54 -13 0
1 -54 -56 0
1 54 70 0
1 54 -36 0
1 -54 -14 0
1 -54 -71 0
1 54 -22 0
1 -54 51 0
1 -53 72 0
1 53 58 0
1 -53 -18 0
1 -53 -73 0
1 53 -19 0
1 -53 -56 0
1 -53 -70 0
1 53 21 0
1 -53 22 0
1 53 51 0
1 64 72 0
1 -64 74 0
1 64 -18 0
1 -64 75 0
1 -64 -60 0
1 -64 76 0
1 -14 -8 0
1 -14 13 0
1 14 3 0
1 -14 -6 0
1 14 -9 0
1 14 60 0
1 14 54 0
1 -14 66 0
1 -14 -67 0
1 14 -4 0
1 13 -39 0
1 -13 63 0
1 -13 69 0
1 13 -77 0
1 13 6 0
1 13 14 0
1 -13 -54 0
1 13 -66 0
1 13 -67 0
1 13 4 0
1 -13 17 0
1 36 78 0
1 -36 -69 0
1 -36 77 0
1 -36 -20 0
1 36 -9 0
1 36 -31 0
1 -36 66 0
1 -36 -67 0
1 35 -8 0
1 35 -63 0
1 -35 69 0
1 -35 20 0
1 35 9 0
1 35 54 0
1 35 66 0
1 35 67 0
1 77 -13 0
1 77 -18 0
1 77 79 0
1 77 30 0
1 -77 -36 0
1 77 -14 0
1 -77 21 0
1 -77 -80 0
1 -77 -33 0
1 67 35 0
1 -67 18 0
1 67 77 0
1 -67 81 0
1 67 30 0
1 -67 -82 0
1 67 -36 0
1 -67 14 0
1 -67 -80 0
1 67 -44 0
1 67 -33 0
1 69 -35 0
1 69 13 0
1 69 -18 0
1 -69 -83 0
1 69 -36 0
1 -69 -14 0
1 69 66 0
1 -69 -80 0
1 -69 84 0
1 -66 35 0
1 -66 13 0
1 -66 18 0
1 66 -70 0
1 66 -36 0
1 66 -80 0
1 -66 -84 0
1 30 78 0
1 30 -8 0
1 30 -20 0
1 -30 -70 0
1 -30 85 0
1 -30 28 0
1 -30 67 0
1 -30 86 0
1 -30 -33 0
1 33 8 0
1 -33 78 0
1 -33 -12 0
1 33 25 0
1 33 77 0
1 -33 -20 0
1 -33 -9 0
1 -33 67 0
1 33 86 0
1 81 38 0
1 81 34 0
1 -81 -77 0
1 81 -87 0
1 -81 -20 0
1 -81 -88 0
1 81 -67 0
1 81 -44 0
1 -81 86 0
1 -44 38 0
1 -44 -34 0
1 -44 -25 0
1 44 77 0
1 -44 -20 0
1 44 -37 0
1 44 88 0
1 -44 28 0
1 -44 -67 0
1 -85 -89 0
1 -85 -90 0
1 85 36 0
1 85 -91 0
1 -85 92 0
1 85 33 0
1 78 93 0
1 -78 35 0
1 78 89 0
1 -78 -40 0
1 -78 30 0
1 -78 -85 0
1 78 36 0
1 -78 91 0
1 78 -92 0
1 -78 -42 0
1 -78 -44 0
1 20 -35 0
1 -20 89 0
1 -20 -94 0
1 -20 -81 0
1 20 -3 0
1 -20 36 0
1 -20 -95 0
1 -20 -44 0
1 20 86 0
1 20 33 0
1 -86 35 0
1 -86 89 0
1 86 96 0
1 -86 -94 0
1 86 44 0
1 -40 -38 0
1 -40 -25 0
1 -40 -34 0
1 -40 26 0
1 -40 94 0
1 -40 27 0
1 -40 -42 0
1 42 -78 0
1 -42 -38 0
1 42 25 0
1 -42 40 0
1 -42 85 0
1 -42 -28 0
1 42 27 0
1 42 -80 0
1 97 38 0
1 97 -92 0
1 97 85 0
1 97 -88 0
1 97 43 0
1 -97 41 0
1 92 -78 0
1 92 -38 0
1 92 -34 0
1 92 98 0
1 -92 -97 0
1 -92 85 0
1 -92 41 0
1 92 -95 0
1 -88 -99 0
1 -88 -100 0
1 88 -97 0
1 -88 -81 0
1 88 -101 0
1 88 -102 0
1 -88 103 0
1 -88 92 0
1 88 -42 0
1 34 -99 0
1 -34 -104 0
1 -34 -100 0
1 -34 -97 0
1 -34 81 0
1 34 -92 0
1 -34 -42 0
1 34 -44 0
1 37 -99 0
1 37 -81 0
1 37 105 0
1 37 -106 0
1 -37 107 0
1 -37 -91 0
1 37 -92 0
1 -37 42 0
1 -37 -44 0
1 38 8 0
1 -38 108 0
1 -38 89 0
1 -38 -97 0
1 -38 40 0
1 38 81 0
1 -38 42 0
1 38 -44 0
1 100 34 0
1 100 -98 0
1 100 -89 0
1 100 43 0
1 -100 -88 0
1 100 103 0
1 -100 41 0
1 -103 98 0
1 103 -43 0
1 103 41 0
1 109 -98 0
1 109 108 0
1 109 -110 0
1 -109 -101 0
1 -109 41 0
1 -101 -34 0
1 101 98 0
1 101 41 0
1 -41 100 0
1 -41 -110 0
1 -41 -97 0
1 41 101 0
1 -41 -103 0
1 41 27 0
1 -41 -92 0
1 41 -111 0
1 -110 -26 0
1 -110 112 0
1 -110 113 0
1 -110 101 0
1 110 103 0
1 -43 114 0
1 43 -99 0
1 43 109 0
1 43 100 0
1 -43 113 0
1 43 115 0
1 43 -105 0
1 -43 101 0
1 -43 -28 0
1 -43 103 0
1 -43 116 0
1 -98 -99 0
1 -98 -109 0
1 98 -100 0
1 -98 -105 0
1 -98 -101 0
1 47 117 0
1 -47 49 0
1 47 118 0
1 47 -5 0
1 -49 -117 0
1 -49 -119 0
1 49 -45 0
1 49 -120 0
1 -55 119 0
1 -55 -121 0
1 -55 122 0
1 55 -118 0
1 -55 -123 0
1 124 -119 0
1 124 -125 0
1 -124 56 0
1 -124 -126 0
1 -124 -55 0
1 118 127 0
1 118 119 0
1 -118 59 0
1 118 -49 0
1 -118 61 0
1 118 -47 0
1 119 -118 0
1 119 -68 0
1 -119 -128 0
1 119 -124 0
1 -119 49 0
1 -119 -65 0
1 119 47 0
1 -122 117 0
1 -122 -129 0
1 -122 130 0
1 122 124 0
1 122 -49 0
1 -122 -131 0
1 122 -132 0
1 -122 55 0
1 122 -47 0
1 117 130 0
1 -117 -124 0
1 117 -122 0
1 117 131 0
1 61 -48 0
1 -61 125 0
1 -61 121 0
1 61 22 0
1 -61 -126 0
1 -59 -48 0
1 59 -119 0
1 -59 -19 0
1 -59 -121 0
1 59 50 0
1 59 118 0
1 -59 61 0
1 -65 -48 0
1 65 119 0
1 -65 -121 0
1 65 -133 0
1 -65 -50 0
1 65 21 0
1 65 -118 0
1 -65 134 0
1 -65 123 0
1 -68 135 0
1 -68 48 0
1 -68 -18 0
1 68 125 0
1 -68 -133 0
1 -68 136 0
1 -68 -126 0
1 -68 137 0
1 123 -138 0
1 123 74 0
1 -123 -121 0
1 123 139 0
1 123 65 0
1 -123 140 0
1 -121 138 0
1 121 -124 0
1 121 60 0
1 -121 123 0
1 121 65 0
1 121 55 0
1 126 138 0
1 126 141 0
1 -126 127 0
1 126 -68 0
1 -126 59 0
1 -126 142 0
1 126 143 0
1 125 -138 0
1 -125 -127 0
1 -125 -68 0
1 -125 -126 0
1 125 142 0
1 125 -131 0
1 125 -65 0
1 -125 -55 0
1 60 48 0
1 60 -52 0
1 -60 53 0
1 60 121 0
1 -60 133 0
1 60 -50 0
1 60 46 0
1 60 64 0
1 60 -131 0
1 60 123 0
1 60 137 0
1 -58 -135 0
1 58 52 0
1 -58 127 0
1 -58 -121 0
1 58 -133 0
1 58 -136 0
1 58 -50 0
1 -58 -46 0
1 58 64 0
1 -58 60 0
1 58 123 0
1 -58 -137 0
1 75 -121 0
1 75 -36 0
1 75 144 0
1 75 142 0
1 -75 -123 0
1 75 137 0
1 -74 -135 0
1 74 -35 0
1 74 -57 0
1 -74 -53 0
1 -74 -121 0
1 74 133 0
1 -74 -62 0
1 74 -75 0
1 -74 123 0
1 74 -137 0
1 -135 -72 0
1 135 -145 0
1 -135 74 0
1 135 -146 0
1 -135 -136 0
1 -135 -60 0
1 -135 65 0
1 -136 135 0
1 -136 -68 0
1 -136 -146 0
1 136 87 0
1 -136 -70 0
1 136 75 0
1 -136 -60 0
1 -137 -58 0
1 137 -147 0
1 -137 133 0
1 -137 -146 0
1 -137 148 0
1 137 -60 0
1 -137 149 0
1 -137 -150 0
1 -133 58 0
1 -133 146 0
1 -133 151 0
1 -133 -139 0
1 133 75 0
1 -133 137 0
1 -133 -150 0
1 70 -72 0
1 -70 135 0
1 -70 -152 0
1 -70 -57 0
1 70 53 0
1 70 -69 0
1 -70 -136 0
1 70 -144 0
1 70 -64 0
1 70 -54 0
1 -72 -135 0
1 -72 138 0
1 72 -152 0
1 72 53 0
1 -72 -69 0
1 72 136 0
1 72 62 0
1 72 -144 0
1 -72 66 0
1 -72 -33 0
1 87 -57 0
1 -87 -73 0
1 -87 69 0
1 -87 -81 0
1 87 -136 0
1 -87 148 0
1 87 62 0
1 -87 -84 0
1 84 57 0
1 84 153 0
1 84 -69 0
1 84 87 0
1 -84 136 0
1 -84 62 0
1 -84 144 0
1 84 -71 0
1 84 44 0
1 -84 -150 0
1 57 72 0
1 57 -74 0
1 -57 154 0
1 57 155 0
1 -57 -96 0
1 -57 -75 0
1 57 -144 0
1 -57 156 0
1 -57 -80 0
1 144 72 0
1 -144 74 0
1 144 -57 0
1 -144 155 0
1 144 -87 0
1 144 -70 0
1 144 157 0
1 -144 84 0
1 152 -72 0
1 152 74 0
1 -152 -155 0
1 152 -158 0
1 -152 146 0
1 -152 -87 0
1 152 -70 0
1 -152 -62 0
1 152 75 0
1 152 -159 0
1 -152 149 0
1 152 -84 0
1 62 -152 0
1 -62 155 0
1 62 158 0
1 62 -70 0
1 62 -75 0
1 62 -156 0
1 -62 149 0
1 -62 -84 0
1 -94 153 0
1 94 -69 0
1 94 40 0
1 -94 77 0
1 -94 -146 0
1 -94 20 0
1 94 -144 0
1 94 71 0
1 94 66 0
1 94 -80 0
1 80 -57 0
1 -80 73 0
1 -80 -153 0
1 80 -69 0
1 80 -77 0
1 -80 76 0
1 80 -71 0
1 80 -42 0
1 80 149 0
1 80 86 0
1 -96 -57 0
1 96 160 0
1 -96 -73 0
1 -96 -153 0
1 96 -83 0
1 -96 -158 0
1 96 -79 0
1 96 20 0
1 -96 -144 0
1 -96 71 0
1 -96 -86 0
1 95 -57 0
1 95 153 0
1 -95 -96 0
1 95 79 0
1 95 -20 0
1 95 -92 0
1 -95 -160 0
1 -95 -159 0
1 95 -82 0
1 95 -86 0
1 -153 -71 0
1 153 -161 0
1 153 -108 0
1 153 -89 0
1 -153 162 0
1 153 -96 0
1 -153 -87 0
1 153 163 0
1 153 -107 0
1 -153 91 0
1 153 95 0
1 -153 -80 0
1 153 84 0
1 71 -161 0
1 -71 -96 0
1 71 163 0
1 71 107 0
1 71 91 0
1 71 164 0
1 71 95 0
1 -71 -80 0
1 73 165 0
1 73 -166 0
1 -73 96 0
1 73 -94 0
1 73 87 0
1 -73 76 0
1 -73 -167 0
1 73 156 0
1 -73 -80 0
1 73 84 0
1 -76 73 0
1 76 96 0
1 76 -94 0
1 -76 -167 0
1 -76 95 0
1 -76 80 0
1 76 -84 0
1 -89 78 0
1 -89 -38 0
1 89 -153 0
1 -89 -79 0
1 -89 -20 0
1 89 -85 0
1 89 37 0
1 -89 82 0
1 89 86 0
1 -91 38 0
1 91 89 0
1 91 -20 0
1 -91 85 0
1 91 -71 0
1 91 -156 0
1 91 160 0
1 -91 82 0
1 -91 -86 0
1 108 -109 0
1 108 -165 0
1 -108 153 0
1 108 -83 0
1 108 -90 0
1 -108 -107 0
1 -108 71 0
1 -108 -82 0
1 108 -168 0
1 107 -38 0
1 107 108 0
1 107 153 0
1 -107 79 0
1 107 -169 0
1 107 -167 0
1 107 -160 0
1 -107 82 0
1 -79 170 0
1 79 114 0
1 79 -108 0
1 -79 96 0
1 79 -77 0
1 -79 -171 0
1 79 172 0
1 -79 115 0
1 79 -105 0
1 -79 95 0
1 -82 114 0
1 82 -99 0
1 82 -89 0
1 82 -96 0
1 82 115 0
1 -82 -105 0
1 82 -91 0
1 82 -67 0
1 82 -173 0
1 -83 170 0
1 -83 174 0
1 -83 -161 0
1 83 108 0
1 83 89 0
1 83 69 0
1 -83 -96 0
1 -83 175 0
1 -83 163 0
1 -83 -107 0
1 -83 -91 0
1 83 95 0
1 160 174 0
1 -160 108 0
1 160 -96 0
1 -160 172 0
1 160 -176 0
1 160 -66 0
1 -160 -95 0
1 -160 -177 0
1 -99 -93 0
1 -99 -161 0
1 99 -169 0
1 -99 -37 0
1 -99 43 0
1 -99 168 0
1 105 98 0
1 -105 169 0
1 105 90 0
1 -105 37 0
1 105 -163 0
1 -105 88 0
1 -105 -43 0
1 -105 -82 0
1 105 168 0
1 -114 -93 0
1 114 174 0
1 114 -104 0
1 114 -98 0
1 -114 -79 0
1 -114 -115 0
1 114 -102 0
1 -114 -43 0
1 -114 -82 0
1 -115 93 0
1 -115 -104 0
1 115 98 0
1 -115 -79 0
1 -115 -169 0
1 -115 102 0
1 -115 82 0
1 115 168 0
1 -90 -93 0
1 90 114 0
1 90 99 0
1 -90 -178 0
1 -90 115 0
1 -90 85 0
1 90 105 0
1 90 179 0
1 93 78 0
1 93 108 0
1 93 178 0
1 -93 -180 0
1 -93 90 0
1 93 107 0
1 93 -181 0
1 -93 179 0
1 -169 170 0
1 169 114 0
1 -169 108 0
1 169 182 0
1 -169 -115 0
1 -169 183 0
1 -169 -181 0
1 169 168 0
1 169 184 0
1 -168 -185 0
1 -168 170 0
1 168 -114 0
1 168 -178 0
1 168 172 0
1 -168 169 0
1 168 105 0
1 -168 -181 0
1 168 86 0
1 168 -184 0
1 186 170 0
1 -186 93 0
1 186 104 0
1 186 98 0
1 -186 110 0
1 186 41 0
1 113 -186 0
1 113 93 0
1 -113 -187 0
1 113 -104 0
1 -113 -110 0
1 113 102 0
1 113 -43 0
1 113 41 0
1 -179 93 0
1 179 104 0
1 179 -188 0
1 179 -112 0
1 179 -180 0
1 -179 -106 0
1 179 111 0
1 -179 -184 0
1 -180 104 0
1 -180 -188 0
1 180 -112 0
1 -180 -116 0
1 -102 104 0
1 102 -189 0
1 102 190 0
1 -102 191 0
1 102 113 0
1 -102 115 0
1 102 88 0
1 -102 -192 0
1 -102 -179 0
1 -104 -186 0
1 -104 -34 0
1 -104 193 0
1 104 -190 0
1 -104 -191 0
1 -104 102 0
1 104 194 0
1 -104 192 0
1 -104 -195 0
1 -106 -187 0
1 106 -189 0
1 -106 196 0
1 -106 -178 0
1 -106 -180 0
1 106 -113 0
1 106 -37 0
1 106 197 0
1 106 198 0
1 106 181 0
1 106 179 0
1 -187 -186 0
1 -187 -114 0
1 -187 -38 0
1 -187 199 0
1 187 189 0
1 187 -196 0
1 -187 -178 0
1 187 -115 0
1 187 -106 0
1 187 -194 0
1 -187 198 0
1 195 -104 0
1 -195 188 0
1 -195 -112 0
1 195 102 0
1 195 -111 0
1 191 188 0
1 191 116 0
1 191 -111 0
1 -192 188 0
1 -192 -190 0
1 -192 -112 0
1 192 -116 0
1 192 198 0
1 190 -112 0
1 -190 196 0
1 -190 102 0
1 -190 -116 0
1 190 -192 0
1 111 -200 0
1 -111 -190 0
1 -111 191 0
1 111 -180 0
1 111 -201 0
1 -111 195 0
1 112 111 0
1 112 -200 0
1 112 190 0
1 -112 202 0
1 112 191 0
1 112 203 0
1 112 192 0
1 112 -195 0
1 -112 -179 0
1 -116 -200 0
1 -116 204 0
1 116 190 0
1 116 191 0
1 116 203 0
1 116 194 0
1 -116 205 0
1 116 192 0
1 -116 -195 0
1 -188 -204 0
1 188 -189 0
1 -188 190 0
1 -188 191 0
1 -188 -180 0
1 -188 203 0
1 -188 -116 0
1 -188 -194 0
1 -188 -179 0
1 206 207 0
1 -206 -120 0
1 206 -47 0
1 -120 -49 0
1 -120 -208 0
1 -120 -206 0
1 -209 -210 0
1 209 -211 0
1 -209 212 0
1 209 55 0
1 -209 213 0
1 -214 -124 0
1 -214 207 0
1 -214 211 0
1 214 -215 0
1 -214 -209 0
1 207 130 0
1 -207 134 0
1 -207 215 0
1 207 132 0
1 -215 129 0
1 -215 -130 0
1 -215 214 0
1 -215 -132 0
1 -215 -216 0
1 215 209 0
1 215 -206 0
1 -210 -214 0
1 -210 217 0
1 210 -120 0
1 208 -210 0
1 -208 120 0
1 208 218 0
1 208 -209 0
1 132 -117 0
1 132 -130 0
1 132 -211 0
1 132 212 0
1 -132 -215 0
1 -132 -213 0
1 130 117 0
1 -130 207 0
1 130 211 0
1 -130 -212 0
1 130 -122 0
1 130 -219 0
1 -130 213 0
1 134 -220 0
1 134 -221 0
1 134 207 0
1 -134 -212 0
1 134 222 0
1 -134 -65 0
1 134 215 0
1 -134 219 0
1 134 -213 0
1 -129 220 0
1 129 117 0
1 -129 68 0
1 129 -207 0
1 129 211 0
1 -129 222 0
1 -129 122 0
1 129 -134 0
1 129 215 0
1 129 -219 0
1 212 129 0
1 212 130 0
1 212 214 0
1 -212 223 0
1 -212 -134 0
1 212 -132 0
1 212 209 0
1 -212 -213 0
1 -213 -224 0
1 213 -225 0
1 -213 -141 0
1 -213 130 0
1 213 212 0
1 -213 -142 0
1 -213 -131 0
1 -211 -225 0
1 211 -219 0
1 211 129 0
1 -211 -130 0
1 -211 -214 0
1 -211 226 0
1 -211 227 0
1 211 -134 0
1 -211 -209 0
1 219 130 0
1 -219 211 0
1 219 227 0
1 219 228 0
1 131 220 0
1 131 -221 0
1 -131 -118 0
1 131 -127 0
1 -131 229 0
1 -131 -60 0
1 -131 122 0
1 -131 213 0
1 -127 -58 0
1 -127 119 0
1 127 212 0
1 -127 -229 0
1 -127 -222 0
1 127 122 0
1 127 131 0
1 -127 118 0
1 127 -126 0
1 -127 -213 0
1 142 220 0
1 -142 221 0
1 142 -141 0
1 -142 -230 0
1 142 -128 0
1 -142 212 0
1 142 -229 0
1 142 75 0
1 -142 222 0
1 142 -231 0
1 -142 -232 0
1 -142 126 0
1 -142 213 0
1 141 74 0
1 141 -221 0
1 141 230 0
1 -141 -125 0
1 -141 212 0
1 141 -222 0
1 141 -231 0
1 141 126 0
1 222 -141 0
1 -222 127 0
1 -222 -129 0
1 222 -233 0
1 -222 -150 0
1 -221 127 0
1 221 -129 0
1 -221 139 0
1 221 -222 0
1 -221 142 0
1 -221 134 0
1 221 -234 0
1 221 -150 0
1 -229 -225 0
1 229 -127 0
1 229 129 0
1 -229 235 0
1 -229 236 0
1 -229 237 0
1 -229 131 0
1 229 -134 0
1 229 -234 0
1 220 238 0
1 -220 225 0
1 -220 -239 0
1 -220 -127 0
1 220 -236 0
1 -220 -229 0
1 -220 -227 0
1 -220 142 0
1 -220 131 0
1 -220 234 0
1 -139 138 0
1 -139 -221 0
1 -139 128 0
1 139 -125 0
1 -139 -121 0
1 139 133 0
1 -139 -70 0
1 139 222 0
1 -139 126 0
1 -139 123 0
1 -139 137 0
1 -138 -72 0
1 138 128 0
1 -138 125 0
1 138 121 0
1 -138 -231 0
1 138 232 0
1 -138 126 0
1 -138 123 0
1 138 -137 0
1 -148 -230 0
1 148 128 0
1 148 240 0
1 148 -133 0
1 -148 87 0
1 -148 -236 0
1 148 -231 0
1 148 143 0
1 -148 -140 0
1 -148 150 0
1 150 -238 0
1 -150 -230 0
1 -150 128 0
1 -150 -240 0
1 150 148 0
1 -150 231 0
1 -150 140 0
1 -232 138 0
1 232 141 0
1 232 -241 0
1 -232 148 0
1 232 -142 0
1 232 -242 0
1 232 -149 0
1 128 138 0
1 128 141 0
1 -128 119 0
1 128 -243 0
1 -128 241 0
1 -128 158 0
1 128 -146 0
1 -128 139 0
1 -128 -142 0
1 -128 -232 0
1 -128 -242 0
1 128 159 0
1 -128 -149 0
1 -128 150 0
1 -231 -230 0
1 231 -244 0
1 231 -235 0
1 -231 148 0
1 231 -142 0
1 -231 242 0
1 -231 245 0
1 -231 -150 0
1 -230 138 0
1 -230 141 0
1 -230 117 0
1 230 -246 0
1 230 244 0
1 230 235 0
1 -230 -148 0
1 230 231 0
1 -230 -242 0
1 230 -245 0
1 230 -234 0
1 230 150 0
1 -146 135 0
1 146 94 0
1 -146 133 0
1 -146 235 0
1 146 136 0
1 -146 -232 0
1 -146 143 0
1 146 149 0
1 -146 -137 0
1 -149 137 0
1 149 152 0
1 -149 128 0
1 149 247 0
1 -149 133 0
1 149 -146 0
1 149 136 0
1 149 -232 0
1 -149 140 0
1 -158 -128 0
1 -158 -240 0
1 -158 -96 0
1 -158 -244 0
1 158 -151 0
1 -158 248 0
1 158 -62 0
1 -158 143 0
1 158 -232 0
1 158 159 0
1 158 147 0
1 -159 145 0
1 159 240 0
1 -159 -158 0
1 159 -247 0
1 159 -151 0
1 159 248 0
1 -159 -62 0
1 159 232 0
1 159 -143 0
1 -159 -140 0
1 -140 165 0
1 140 -155 0
1 140 158 0
1 140 247 0
1 -140 146 0
1 -140 -148 0
1 -140 249 0
1 -140 167 0
1 -140 -123 0
1 140 250 0
1 140 -150 0
1 -247 251 0
1 -247 165 0
1 247 155 0
1 247 -121 0
1 -247 158 0
1 247 148 0
1 247 249 0
1 -247 -156 0
1 -247 159 0
1 -143 -251 0
1 143 240 0
1 143 -241 0
1 143 -158 0
1 143 -249 0
1 143 252 0
1 143 242 0
1 143 159 0
1 143 253 0
1 -240 251 0
1 -240 241 0
1 240 148 0
1 -240 249 0
1 -240 -252 0
1 240 242 0
1 -240 -159 0
1 155 -152 0
1 -155 73 0
1 155 89 0
1 -155 -241 0
1 155 -247 0
1 155 151 0
1 -155 62 0
1 155 144 0
1 155 -76 0
1 155 -156 0
1 -155 147 0
1 156 -145 0
1 156 -152 0
1 156 247 0
1 156 151 0
1 156 -62 0
1 156 242 0
1 156 -147 0
1 165 -145 0
1 165 73 0
1 -165 108 0
1 165 254 0
1 165 -247 0
1 165 -151 0
1 -165 -147 0
1 -167 -145 0
1 167 -154 0
1 167 165 0
1 -167 -247 0
1 167 -151 0
1 -167 248 0
1 -167 255 0
1 -167 -76 0
1 -167 -107 0
1 -167 -252 0
1 167 -140 0
1 -145 135 0
1 145 -174 0
1 -145 -165 0
1 145 -155 0
1 -145 158 0
1 -145 248 0
1 -145 -176 0
1 -145 -163 0
1 145 167 0
1 145 -156 0
1 -145 -159 0
1 248 -256 0
1 -248 161 0
1 248 165 0
1 248 158 0
1 248 136 0
1 -248 257 0
1 -248 -167 0
1 -248 -159 0
1 147 -256 0
1 -147 -258 0
1 -147 165 0
1 -147 155 0
1 147 -151 0
1 -147 -259 0
1 147 249 0
1 -147 167 0
1 -147 -137 0
1 -151 256 0
1 151 -258 0
1 151 155 0
1 151 -158 0
1 151 -133 0
1 -151 -260 0
1 151 -261 0
1 -151 147 0
1 161 -99 0
1 161 -262 0
1 161 -154 0
1 -161 153 0
1 -161 83 0
1 161 -255 0
1 -161 -163 0
1 -161 157 0
1 -161 76 0
1 -161 160 0
1 -163 -145 0
1 163 73 0
1 -163 105 0
1 -163 255 0
1 163 76 0
1 -163 -157 0
1 -174 145 0
1 -174 114 0
1 -174 258 0
1 -174 262 0
1 174 -154 0
1 -174 166 0
1 -174 83 0
1 174 -248 0
1 -174 176 0
1 174 255 0
1 174 157 0
1 -174 263 0
1 174 164 0
1 176 154 0
1 -176 166 0
1 176 162 0
1 -176 83 0
1 -176 115 0
1 176 255 0
1 -176 157 0
1 -176 263 0
1 176 160 0
1 -154 170 0
1 154 -161 0
1 -154 57 0
1 -154 264 0
1 -154 165 0
1 -154 -265 0
1 -154 182 0
1 -154 -176 0
1 -154 163 0
1 154 167 0
1 -154 184 0
1 157 170 0
1 -157 -174 0
1 157 -154 0
1 -157 165 0
1 -157 -265 0
1 -157 182 0
1 -157 -172 0
1 -157 -176 0
1 -157 -144 0
1 157 266 0
1 -157 167 0
1 -262 -267 0
1 -262 152 0
1 -262 161 0
1 262 -165 0
1 -262 265 0
1 262 176 0
1 -262 -255 0
1 -255 -267 0
1 255 -256 0
1 -255 -174 0
1 255 165 0
1 255 265 0
1 255 -62 0
1 -255 163 0
1 255 -268 0
1 -255 167 0
1 -170 -256 0
1 -170 154 0
1 170 166 0
1 170 162 0
1 170 -83 0
1 -170 79 0
1 -170 172 0
1 170 -263 0
1 -170 164 0
1 170 -82 0
1 -172 -162 0
1 172 83 0
1 172 79 0
1 172 -113 0
1 -172 -169 0
1 172 259 0
1 -172 -263 0
1 -172 164 0
1 172 -160 0
1 172 168 0
1 -184 -267 0
1 184 -166 0
1 184 182 0
1 -184 -171 0
1 184 157 0
1 184 164 0
1 -184 -177 0
1 184 -173 0
1 -182 -166 0
1 -182 -184 0
1 -182 -171 0
1 -182 -269 0
1 -182 -169 0
1 182 263 0
1 -182 -164 0
1 -182 -177 0
1 182 168 0
1 -162 -170 0
1 -162 -174 0
1 162 164 0
1 162 196 0
1 -162 270 0
1 162 182 0
1 -162 172 0
1 162 -176 0
1 -162 -271 0
1 162 198 0
1 -162 -184 0
1 164 -174 0
1 164 272 0
1 -164 -196 0
1 -164 178 0
1 -164 172 0
1 -164 -176 0
1 164 271 0
1 164 198 0
1 -164 -181 0
1 -166 170 0
1 166 -73 0
1 166 -273 0
1 166 -274 0
1 166 -182 0
1 -166 -172 0
1 -166 -176 0
1 -166 -275 0
1 -166 184 0
1 263 -170 0
1 263 -272 0
1 263 166 0
1 263 265 0
1 263 -182 0
1 263 -176 0
1 -263 76 0
1 -263 276 0
1 -263 -271 0
1 -263 275 0
1 181 -93 0
1 181 187 0
1 181 -175 0
1 -181 -171 0
1 -181 -169 0
1 181 -106 0
1 181 177 0
1 181 -173 0
1 178 -187 0
1 178 -162 0
1 178 191 0
1 -178 175 0
1 -178 -265 0
1 178 -171 0
1 -178 169 0
1 178 -177 0
1 -178 -181 0
1 178 168 0
1 198 277 0
1 -198 -187 0
1 198 196 0
1 -198 162 0
1 198 175 0
1 -198 -171 0
1 -198 -183 0
1 -198 -278 0
1 198 106 0
1 198 164 0
1 198 -192 0
1 -196 185 0
1 196 274 0
1 196 175 0
1 -196 177 0
1 -196 171 0
1 -196 164 0
1 196 -198 0
1 196 173 0
1 -171 -279 0
1 171 -189 0
1 171 196 0
1 -171 178 0
1 -171 -182 0
1 171 280 0
1 -171 173 0
1 171 -181 0
1 -173 -204 0
1 173 -189 0
1 -173 182 0
1 173 194 0
1 -173 198 0
1 -173 82 0
1 -173 181 0
1 -173 -281 0
1 -175 -279 0
1 -175 272 0
1 -175 178 0
1 -175 -177 0
1 -175 282 0
1 175 -198 0
1 175 -181 0
1 -175 184 0
1 177 283 0
1 177 272 0
1 177 175 0
1 -177 284 0
1 -177 282 0
1 177 -271 0
1 -177 160 0
1 194 -277 0
1 -194 -187 0
1 194 104 0
1 194 -278 0
1 -194 106 0
1 -194 -116 0
1 189 185 0
1 189 -104 0
1 -189 -188 0
1 -189 -272 0
1 189 171 0
1 189 278 0
1 189 106 0
1 -189 -102 0
1 -189 -116 0
1 -189 -194 0
1 189 173 0
1 285 -185 0
1 -285 -277 0
1 285 199 0
1 -285 204 0
1 -285 193 0
1 -285 -282 0
1 285 -171 0
1 285 -183 0
1 -285 -278 0
1 -285 -197 0
1 -285 286 0
1 285 116 0
1 -285 173 0
1 -204 185 0
1 204 199 0
1 204 -283 0
1 -204 188 0
1 204 -193 0
1 204 171 0
1 204 -183 0
1 204 278 0
1 -204 197 0
1 204 -286 0
1 204 -173 0
1 278 -287 0
1 278 -288 0
1 -278 277 0
1 278 -200 0
1 278 189 0
1 -278 -289 0
1 278 194 0
1 278 -198 0
1 277 -287 0
1 277 288 0
1 277 -93 0
1 277 -200 0
1 -277 -204 0
1 -277 -189 0
1 -277 -196 0
1 277 290 0
1 -277 278 0
1 -277 -285 0
1 277 194 0
1 -183 -291 0
1 -183 -279 0
1 183 -204 0
1 -183 189 0
1 183 284 0
1 -183 285 0
1 -183 -198 0
1 185 -287 0
1 -185 -291 0
1 185 204 0
1 185 -189 0
1 -185 196 0
1 185 289 0
1 185 -183 0
1 -185 292 0
1 -185 -285 0
1 -185 198 0
1 185 168 0
1 -203 -277 0
1 -203 199 0
1 203 -188 0
1 203 -278 0
1 -203 -197 0
1 203 116 0
1 -203 111 0
1 200 277 0
1 -200 199 0
1 200 -193 0
1 -200 -278 0
1 200 -203 0
1 200 286 0
1 -200 111 0
1 290 -288 0
1 290 292 0
1 -290 278 0
1 -290 -197 0
1 -290 -286 0
1 290 -201 0
1 288 -291 0
1 -288 -277 0
1 288 199 0
1 -288 -290 0
1 288 278 0
1 -288 197 0
1 286 -204 0
1 -286 -193 0
1 286 -293 0
1 -286 -294 0
1 -286 -290 0
1 -286 203 0
1 193 -200 0
1 -193 204 0
1 -193 104 0
1 193 -293 0
1 193 -294 0
1 193 290 0
1 193 285 0
1 -193 295 0
1 197 287 0
1 197 -204 0
1 -197 -296 0
1 -197 -203 0
1 197 -106 0
1 197 -285 0
1 197 297 0
1 199 -287 0
1 199 200 0
1 -199 290 0
1 199 197 0
1 -199 -297 0
1 -294 193 0
1 294 -298 0
1 294 -202 0
1 294 289 0
1 -294 286 0
1 -294 -205 0
1 -295 -287 0
1 295 193 0
1 -295 298 0
1 -295 -201 0
1 293 193 0
1 -293 -298 0
1 293 -202 0
1 -293 -296 0
1 293 205 0
1 299 193 0
1 299 298 0
1 299 293 0
1 299 286 0
1 201 -288 0
1 -201 -293 0
1 -201 294 0
1 -201 290 0
1 -201 -111 0
1 201 -299 0
1 201 295 0
1 202 -112 0
1 202 -293 0
1 202 290 0
1 -202 -299 0
1 -205 288 0
1 205 -293 0
1 -205 -294 0
1 -205 290 0
1 205 -299 0
1 298 -288 0
1 298 -188 0
1 -298 -294 0
1 -298 -299 0
1 298 295 0
1 -227 220 0
1 227 -225 0
1 227 -217 0
1 227 139 0
1 227 -213 0
1 -225 138 0
1 -225 -220 0
1 -225 -217 0
1 225 300 0
1 225 211 0
1 225 -212 0
1 225 -216 0
1 -236 220 0
1 236 217 0
1 -236 -226 0
1 -236 -148 0
1 236 223 0
1 -236 -218 0
1 238 224 0
1 238 300 0
1 -238 226 0
1 238 -223 0
1 -238 216 0
1 -238 -228 0
1 238 -150 0
1 300 -238 0
1 300 -225 0
1 300 235 0
1 -300 -234 0
1 216 -225 0
1 -216 -244 0
1 -216 -300 0
1 -216 -235 0
1 216 215 0
1 216 245 0
1 217 -225 0
1 -217 236 0
1 217 -227 0
1 217 218 0
1 218 -225 0
1 218 -217 0
1 218 -236 0
1 218 227 0
1 235 -220 0
1 235 221 0
1 -235 230 0
1 -235 228 0
1 235 146 0
1 -235 226 0
1 235 223 0
1 -235 -234 0
1 234 224 0
1 234 220 0
1 -234 -230 0
1 -234 -300 0
1 -234 226 0
1 234 -216 0
1 234 149 0
1 -234 228 0
1 -244 239 0
1 -244 -301 0
1 244 -230 0
1 -244 -158 0
1 244 -226 0
1 -244 223 0
1 -244 237 0
1 -244 233 0
1 -244 -231 0
1 244 245 0
1 244 -228 0
1 245 239 0
1 245 301 0
1 245 -300 0
1 -245 223 0
1 245 -233 0
1 245 -231 0
1 -245 159 0
1 -245 -216 0
1 -223 238 0
1 -223 -224 0
1 223 -302 0
1 223 254 0
1 -223 -244 0
1 223 -212 0
1 -223 303 0
1 -223 -304 0
1 223 252 0
1 -224 -302 0
1 -224 -241 0
1 -224 -244 0
1 -224 235 0
1 -224 223 0
1 -224 252 0
1 -224 213 0
1 -226 -228 0
1 -226 -211 0
1 -226 304 0
1 -226 -245 0
1 -226 -234 0
1 228 244 0
1 -228 245 0
1 228 -219 0
1 -228 -234 0
1 -241 -224 0
1 241 -301 0
1 241 -128 0
1 -241 155 0
1 -241 -240 0
1 241 -223 0
1 241 237 0
1 241 231 0
1 241 -242 0
1 241 -143 0
1 242 224 0
1 242 -239 0
1 242 -301 0
1 -242 230 0
1 242 128 0
1 -242 -240 0
1 -242 241 0
1 242 -223 0
1 -242 -143 0
1 -242 231 0
1 -242 -156 0
1 -254 224 0
1 254 246 0
1 -254 -243 0
1 254 -223 0
1 -254 -252 0
1 254 305 0
1 -252 -239 0
1 -252 -301 0
1 -252 -246 0
1 252 240 0
1 252 -243 0
1 252 223 0
1 252 237 0
1 252 167 0
1 252 -306 0
1 -252 305 0
1 233 -301 0
1 -233 254 0
1 233 -241 0
1 -233 244 0
1 233 -307 0
1 -233 -222 0
1 -233 308 0
1 233 252 0
1 -233 242 0
1 -301 -258 0
1 -301 -254 0
1 -301 307 0
1 301 261 0
1 301 -233 0
1 -237 -239 0
1 -237 -309 0
1 -237 310 0
1 237 -302 0
1 -237 -254 0
1 237 241 0
1 237 -244 0
1 237 307 0
1 237 -229 0
1 237 311 0
1 -237 242 0
1 -239 -220 0
1 239 312 0
1 -239 310 0
1 -239 254 0
1 239 237 0
1 -239 -311 0
1 -239 -304 0
1 -239 242 0
1 -251 301 0
1 251 246 0
1 -251 243 0
1 251 -240 0
1 251 -247 0
1 -251 151 0
1 251 -233 0
1 -251 -306 0
1 -251 143 0
1 -251 140 0
1 -251 -147 0
1 249 -251 0
1 -249 246 0
1 249 -243 0
1 249 -240 0
1 249 151 0
1 -249 -163 0
1 -249 -233 0
1 249 304 0
1 -249 -305 0
1 249 143 0
1 249 -140 0
1 -249 -147 0
1 -258 -301 0
1 258 313 0
1 258 151 0
1 258 -261 0
1 -258 -233 0
1 -258 -306 0
1 -258 305 0
1 -261 258 0
1 261 -246 0
1 -261 243 0
1 261 -314 0
1 -261 -176 0
1 261 -311 0
1 -261 -306 0
1 -261 305 0
1 261 -253 0
1 305 267 0
1 -305 -258 0
1 305 251 0
1 -305 -254 0
1 -305 -315 0
1 -305 269 0
1 -305 259 0
1 -305 232 0
1 -305 -316 0
1 243 251 0
1 -243 254 0
1 243 317 0
1 -243 -315 0
1 -243 -259 0
1 243 261 0
1 243 252 0
1 243 316 0
1 306 318 0
1 306 -309 0
1 306 258 0
1 -306 -246 0
1 306 315 0
1 306 261 0
1 306 249 0
1 -306 -319 0
1 -306 -316 0
1 -246 318 0
1 -246 251 0
1 246 -306 0
1 -246 -230 0
1 -246 -315 0
1 246 -320 0
1 246 -307 0
1 246 261 0
1 -246 -249 0
1 -246 -252 0
1 256 170 0
1 256 -309 0
1 256 314 0
1 256 313 0
1 -256 -255 0
1 -256 -305 0
1 256 -147 0
1 -259 145 0
1 -259 314 0
1 -259 -313 0
1 -259 -172 0
1 259 255 0
1 259 305 0
1 259 253 0
1 259 -250 0
1 267 -321 0
1 267 -322 0
1 267 262 0
1 267 243 0
1 -267 313 0
1 -267 269 0
1 267 257 0
1 267 255 0
1 267 -305 0
1 -267 253 0
1 -267 250 0
1 267 -184 0
1 -269 -321 0
1 269 322 0
1 -269 262 0
1 269 -243 0
1 -269 -320 0
1 269 253 0
1 269 -250 0
1 -250 -256 0
1 250 -258 0
1 250 323 0
1 250 269 0
1 250 261 0
1 250 324 0
1 -250 140 0
1 313 -256 0
1 313 -258 0
1 -313 -323 0
1 -313 274 0
1 -313 -265 0
1 313 -325 0
1 -313 -324 0
1 -313 -250 0
1 -253 -267 0
1 -253 256 0
1 -253 258 0
1 253 323 0
1 253 -314 0
1 -253 326 0
1 -253 -315 0
1 253 -259 0
1 -253 324 0
1 -253 143 0
1 253 316 0
1 -314 -267 0
1 -314 258 0
1 314 -323 0
1 314 327 0
1 -314 315 0
1 314 259 0
1 -314 -261 0
1 314 253 0
1 314 -316 0
1 265 -321 0
1 -265 322 0
1 265 166 0
1 265 -178 0
1 -265 257 0
1 265 -255 0
1 275 -321 0
1 -275 -328 0
1 -275 166 0
1 -275 -274 0
1 -275 -313 0
1 275 260 0
1 -275 -266 0
1 -275 263 0
1 -275 198 0
1 -275 -329 0
1 274 -328 0
1 -274 264 0
1 -274 166 0
1 274 -196 0
1 274 260 0
1 -274 -268 0
1 274 -263 0
1 274 -275 0
1 -274 -250 0
1 -322 -145 0
1 -322 -330 0
1 -322 -283 0
1 -322 257 0
1 322 331 0
1 -322 271 0
1 322 -275 0
1 -257 -267 0
1 -257 322 0
1 -257 283 0
1 -257 -272 0
1 -257 -274 0
1 257 -248 0
1 -257 332 0
1 -257 331 0
1 -257 282 0
1 257 275 0
1 -321 333 0
1 321 -334 0
1 -321 335 0
1 -321 274 0
1 -321 -265 0
1 321 269 0
1 -321 260 0
1 -321 -331 0
1 -321 -324 0
1 260 267 0
1 260 -321 0
1 -260 323 0
1 260 -274 0
1 260 -265 0
1 260 -151 0
1 -260 275 0
1 -271 -328 0
1 271 -264 0
1 -271 -272 0
1 271 -166 0
1 -271 -162 0
1 -271 175 0
1 -271 257 0
1 271 266 0
1 -271 164 0
1 271 324 0
1 271 -177 0
1 272 -322 0
1 272 189 0
1 272 -323 0
1 272 162 0
1 -272 264 0
1 272 257 0
1 -272 -268 0
1 -272 266 0
1 272 -263 0
1 272 271 0
1 272 177 0
1 -282 -322 0
1 -282 328 0
1 -282 -283 0
1 282 264 0
1 -282 273 0
1 282 -270 0
1 -282 268 0
1 -282 177 0
1 283 204 0
1 -283 -328 0
1 283 -264 0
1 283 -273 0
1 -283 270 0
1 283 -175 0
1 283 -268 0
1 -283 266 0
1 -283 282 0
1 -283 276 0
1 283 336 0
1 -264 154 0
1 264 272 0
1 -264 -274 0
1 -264 -292 0
1 -264 -284 0
1 264 -266 0
1 -264 -271 0
1 264 -275 0
1 -266 291 0
1 266 279 0
1 266 -283 0
1 -266 -264 0
1 266 -274 0
1 -266 -337 0
1 -266 -284 0
1 -266 -157 0
1 -266 -282 0
1 266 -271 0
1 -266 -275 0
1 328 338 0
1 328 -339 0
1 328 262 0
1 -328 -334 0
1 328 -272 0
1 -328 -274 0
1 328 -340 0
1 328 268 0
1 -328 331 0
1 328 282 0
1 328 -275 0
1 268 -338 0
1 -268 339 0
1 268 -272 0
1 -268 -274 0
1 -268 337 0
1 268 -255 0
1 268 -340 0
1 -268 331 0
1 -268 275 0
1 284 185 0
1 284 264 0
1 284 -270 0
1 -284 171 0
1 -284 -183 0
1 -284 203 0
1 -284 -331 0
1 -284 266 0
1 -284 276 0
1 -284 177 0
1 -284 -173 0
1 -279 -334 0
1 279 -273 0
1 279 -270 0
1 279 -175 0
1 -279 -171 0
1 -279 -266 0
1 279 -276 0
1 -292 264 0
1 -292 273 0
1 292 270 0
1 292 183 0
1 292 290 0
1 292 340 0
1 292 -266 0
1 292 276 0
1 292 -341 0
1 291 288 0
1 -291 -339 0
1 -291 264 0
1 -291 -273 0
1 291 -280 0
1 -291 -292 0
1 291 -266 0
1 291 -336 0
1 291 281 0
1 -270 287 0
1 -270 -279 0
1 -270 -162 0
1 270 -289 0
1 270 -282 0
1 -336 287 0
1 -336 291 0
1 -336 283 0
1 -336 296 0
1 -336 289 0
1 336 -292 0
1 336 284 0
1 -336 -282 0
1 336 164 0
1 -336 297 0
1 -273 -338 0
1 273 -291 0
1 -273 283 0
1 273 -284 0
1 -273 282 0
1 273 342 0
1 -276 291 0
1 -276 279 0
1 276 283 0
1 -276 337 0
1 276 292 0
1 276 284 0
1 276 263 0
1 -289 -185 0
1 289 -277 0
1 -289 -270 0
1 289 343 0
1 -289 183 0
1 289 -337 0
1 -289 278 0
1 -289 197 0
1 -289 -336 0
1 -289 -341 0
1 -289 -281 0
1 -287 -338 0
1 287 -277 0
1 287 270 0
1 287 -280 0
1 -287 289 0
1 287 -336 0
1 -287 341 0
1 287 295 0
1 -296 199 0
1 296 -336 0
1 296 270 0
1 296 343 0
1 296 -293 0
1 -296 280 0
1 -296 -344 0
1 296 197 0
1 -296 341 0
1 297 199 0
1 -297 280 0
1 -297 197 0
1 -297 336 0
1 -297 -341 0
1 297 -299 0
1 297 342 0
1 280 -296 0
1 -280 289 0
1 280 281 0
1 -280 -297 0
1 -281 -287 0
1 281 296 0
1 281 280 0
1 -281 173 0
1 343 -287 0
1 -343 291 0
1 -343 175 0
1 343 -296 0
1 -343 289 0
1 -343 -292 0
1 -343 297 0
1 341 287 0
1 341 -343 0
1 341 296 0
1 -341 -289 0
1 -341 177 0
1 -302 239 0
1 302 -345 0
1 302 223 0
1 302 -237 0
1 302 304 0
1 302 -346 0
1 302 228 0
1 304 239 0
1 304 -302 0
1 -304 347 0
1 304 -226 0
1 304 -223 0
1 -304 237 0
1 -304 346 0
1 304 -228 0
1 310 348 0
1 -310 347 0
1 310 -237 0
1 310 -346 0
1 310 -349 0
1 311 -348 0
1 -311 239 0
1 311 -310 0
1 311 -347 0
1 -311 261 0
1 -311 237 0
1 311 350 0
1 311 -346 0
1 311 -349 0
1 347 -318 0
1 347 309 0
1 -347 -302 0
1 347 320 0
1 347 311 0
1 347 -346 0
1 346 318 0
1 346 -309 0
1 346 -310 0
1 346 -302 0
1 346 -347 0
1 346 320 0
1 -346 -311 0
1 346 -304 0
1 -346 216 0
1 345 -302 0
1 -345 -217 0
1 345 311 0
1 -345 -350 0
1 -350 -310 0
1 -350 -302 0
1 -350 -345 0
1 -350 311 0
1 350 -304 0
1 350 218 0
1 -309 -348 0
1 309 256 0
1 -309 301 0
1 -309 246 0
1 -309 347 0
1 -309 351 0
1 309 -307 0
1 -309 -237 0
1 309 -233 0
1 309 -306 0
1 309 -349 0
1 307 -348 0
1 -307 309 0
1 307 -301 0
1 307 -246 0
1 307 -347 0
1 307 259 0
1 307 -237 0
1 307 233 0
1 318 -348 0
1 318 246 0
1 -318 347 0
1 318 320 0
1 -318 303 0
1 318 352 0
1 -318 -308 0
1 -318 -346 0
1 318 349 0
1 -320 -318 0
1 320 312 0
1 320 353 0
1 320 246 0
1 320 -269 0
1 -320 -303 0
1 320 352 0
1 320 -306 0
1 -320 349 0
1 -303 318 0
1 -303 348 0
1 -303 309 0
1 303 -310 0
1 -303 320 0
1 303 223 0
1 303 354 0
1 303 311 0
1 303 355 0
1 -303 -329 0
1 -348 -318 0
1 348 -356 0
1 -348 309 0
1 -348 310 0
1 348 -326 0
1 348 -315 0
1 -348 -307 0
1 -348 355 0
1 -348 329 0
1 -348 316 0
1 -351 -318 0
1 -351 309 0
1 351 -310 0
1 -351 -320 0
1 -351 357 0
1 351 -349 0
1 349 358 0
1 -349 -309 0
1 -349 310 0
1 -349 320 0
1 349 -311 0
1 -349 355 0
1 316 353 0
1 -316 -246 0
1 316 314 0
1 -316 -308 0
1 316 -306 0
1 -316 -253 0
1 315 -348 0
1 -315 353 0
1 315 -246 0
1 315 -243 0
1 -315 -314 0
1 315 -265 0
1 315 -303 0
1 315 -352 0
1 -315 -308 0
1 315 -253 0
1 -329 314 0
1 -329 -303 0
1 329 -352 0
1 329 308 0
1 -329 319 0
1 329 -359 0
1 -329 -275 0
1 326 -348 0
1 326 353 0
1 326 317 0
1 -326 274 0
1 -326 303 0
1 326 308 0
1 326 -319 0
1 -326 359 0
1 326 -329 0
1 -308 318 0
1 -308 -353 0
1 -308 326 0
1 308 -315 0
1 308 233 0
1 -308 -324 0
1 -353 301 0
1 -353 360 0
1 -353 -335 0
1 -353 361 0
1 -353 -323 0
1 353 -315 0
1 353 320 0
1 353 -362 0
1 -353 329 0
1 353 316 0
1 352 -360 0
1 -352 363 0
1 352 -364 0
1 -352 -326 0
1 352 -315 0
1 -352 -320 0
1 352 365 0
1 -352 -329 0
1 -352 -316 0
1 -312 -318 0
1 -312 -239 0
1 312 364 0
1 -312 315 0
1 -312 352 0
1 -312 366 0
1 312 -367 0
1 312 -355 0
1 312 -329 0
1 324 321 0
1 324 -353 0
1 -324 -317 0
1 -324 313 0
1 -324 260 0
1 -324 -359 0
1 324 -250 0
1 -323 321 0
1 -323 -353 0
1 -323 -368 0
1 323 364 0
1 -323 -314 0
1 -323 317 0
1 323 -313 0
1 323 260 0
1 -323 -308 0
1 323 -319 0
1 -323 359 0
1 -362 368 0
1 362 -317 0
1 -362 260 0
1 -362 282 0
1 362 -367 0
1 -362 -369 0
1 -362 370 0
1 -335 -353 0
1 -335 -283 0
1 -335 368 0
1 335 -317 0
1 -335 260 0
1 -335 -308 0
1 -335 319 0
1 -335 359 0
1 -335 -369 0
1 -335 370 0
1 -359 -371 0
1 -359 -334 0
1 359 -323 0
1 359 317 0
1 359 340 0
1 317 -243 0
1 317 372 0
1 -317 362 0
1 -317 -324 0
1 -317 359 0
1 319 -371 0
1 319 373 0
1 319 360 0
1 -319 -306 0
1 319 -323 0
1 -319 -368 0
1 -319 -374 0
1 -319 -366 0
1 -319 -362 0
1 319 324 0
1 368 373 0
1 368 246 0
1 -368 326 0
1 -368 -372 0
1 -368 -374 0
1 -368 -366 0
1 368 362 0
1 368 319 0
1 -368 -324 0
1 -368 -329 0
1 -331 -321 0
1 -331 328 0
1 331 -334 0
1 -331 317 0
1 -331 325 0
1 -331 -257 0
1 331 -268 0
1 -331 366 0
1 331 369 0
1 331 -370 0
1 334 -322 0
1 334 -328 0
1 334 -327 0
1 334 -260 0
1 334 268 0
1 -334 -331 0
1 334 -359 0
1 334 -369 0
1 -340 -339 0
1 340 -328 0
1 340 -375 0
1 -340 -332 0
1 -340 292 0
1 -340 268 0
1 -340 -359 0
1 339 -291 0
1 339 -373 0
1 -339 317 0
1 -339 327 0
1 -339 325 0
1 339 375 0
1 -339 -268 0
1 -339 359 0
1 -370 338 0
1 -370 -334 0
1 -370 335 0
1 -370 325 0
1 -370 344 0
1 370 340 0
1 370 -331 0
1 370 -250 0
1 370 342 0
1 325 -339 0
1 -325 334 0
1 -325 370 0
1 -325 335 0
1 325 -344 0
1 325 -340 0
1 325 342 0
1 369 -335 0
1 369 376 0
1 -369 -331 0
1 369 362 0
1 369 253 0
1 327 377 0
1 -327 -371 0
1 -327 -314 0
1 -327 -376 0
1 327 369 0
1 327 -362 0
1 337 -333 0
1 -337 328 0
1 337 -264 0
1 337 -325 0
1 -337 -375 0
1 -337 -289 0
1 -337 -332 0
1 -337 372 0
1 -337 -266 0
1 -337 -370 0
1 -338 -287 0
1 -338 -333 0
1 338 -371 0
1 -338 328 0
1 338 264 0
1 338 273 0
1 -338 325 0
1 338 -375 0
1 -338 332 0
1 -338 -266 0
1 -338 -276 0
1 344 -333 0
1 344 -330 0
1 -344 370 0
1 -344 -325 0
1 344 296 0
1 -344 -276 0
1 344 -342 0
1 342 333 0
1 342 -273 0
1 342 -375 0
1 -342 332 0
1 342 276 0
1 330 322 0
1 -330 -339 0
1 -330 -340 0
1 330 -342 0
1 332 -338 0
1 -332 -339 0
1 -332 344 0
1 -332 342 0
1 -333 -321 0
1 333 338 0
1 333 -339 0
1 -333 344 0
1 -333 375 0
1 -333 -337 0
1 -333 -342 0
1 -375 338 0
1 375 333 0
1 375 339 0
1 375 -260 0
1 -375 344 0
1 -375 337 0
1 375 340 0
1 355 -378 0
1 -355 348 0
1 -355 -312 0
1 -355 364 0
1 -355 379 0
1 355 351 0
1 -355 -352 0
1 355 -324 0
1 -355 -380 0
1 -355 -349 0
1 -364 -348 0
1 -364 -312 0
1 364 323 0
1 364 -379 0
1 -364 -381 0
1 364 -351 0
1 -364 303 0
1 364 352 0
1 364 355 0
1 -364 378 0
1 364 380 0
1 367 -358 0
1 -367 356 0
1 367 312 0
1 -367 -363 0
1 367 381 0
1 -367 352 0
1 367 362 0
1 -367 380 0
1 363 -358 0
1 -363 356 0
1 -363 312 0
1 -363 -379 0
1 363 367 0
1 -363 378 0
1 -381 -373 0
1 381 -360 0
1 -381 -380 0
1 381 366 0
1 -381 -367 0
1 380 373 0
1 -380 -364 0
1 -380 374 0
1 380 -367 0
1 380 -346 0
1 -379 -345 0
1 -379 367 0
1 379 355 0
1 -378 364 0
1 378 350 0
1 -378 379 0
1 378 -367 0
1 -378 -355 0
1 366 358 0
1 -366 360 0
1 366 368 0
1 -366 -381 0
1 -366 -354 0
1 366 331 0
1 -366 319 0
1 366 380 0
1 -360 -356 0
1 360 -334 0
1 -360 353 0
1 360 381 0
1 360 -352 0
1 360 308 0
1 -360 -319 0
1 360 380 0
1 -374 -358 0
1 374 -356 0
1 374 -381 0
1 374 -357 0
1 -374 354 0
1 -374 365 0
1 -373 -339 0
1 -373 368 0
1 373 -381 0
1 -373 -354 0
1 -373 374 0
1 -373 -382 0
1 354 -371 0
1 -354 -373 0
1 -354 -363 0
1 -354 376 0
1 -354 -303 0
1 356 373 0
1 -356 360 0
1 -356 363 0
1 -356 -376 0
1 -356 -354 0
1 -356 374 0
1 356 -366 0
1 -357 351 0
1 -357 -366 0
1 -357 -367 0
1 358 373 0
1 -358 -360 0
1 -358 -374 0
1 358 367 0
1 -358 -349 0
1 -372 -371 0
1 -372 383 0
1 372 368 0
1 372 -327 0
1 372 -337 0
1 -372 365 0
1 372 319 0
1 372 359 0
1 372 -369 0
1 -371 338 0
1 -371 -356 0
1 -371 -383 0
1 -371 368 0
1 -371 -317 0
1 -371 327 0
1 371 -365 0
1 371 -319 0
1 -371 -359 0
1 -371 -369 0
1 376 377 0
1 -376 383 0
1 376 327 0
1 -376 -344 0
1 -376 -365 0
1 -376 -382 0
1 -376 -369 0
1 -377 356 0
1 377 -383 0
1 -377 -361 0
1 -377 354 0
1 377 365 0
1 -377 -369 0
1 -377 342 0
1 -382 377 0
1 -382 361 0
1 -382 376 0
1 -361 -377 0
1 -361 353 0
1 361 374 0
1 365 373 0
1 -365 -383 0
1 365 376 0
1 -365 372 0
1 383 -377 0
1 -383 -312 0
1 383 376 0
1 383 372 0
